NAME : single
TYPE : ATSP
DIMENSION : 9
EDGE_WEIGHT_TYPE : EXPLICIT
EDGE_WEIGHT_FORMAT : FULL_MATRIX
EDGE_WEIGHT_SECTION
0 847 958 870 578 391 498 179 408 
0 0 72 65 271 361 611 809 946 
0 72 0 59 339 432 682 851 995 
0 65 59 0 293 385 635 836 992 
0 271 339 293 0 156 393 473 515 
0 361 432 385 156 0 250 375 407 
0 611 682 635 393 250 0 339 369 
0 809 851 836 473 375 339 0 277 
0 946 995 992 515 407 369 277 0 
EOF